param set_len = 40;
param target_sum = 11345370619;
param values := [1] 12822389 [2] 809445689 [3] 852617026 [4] 744358560 [5] 12988725 [6] 746657691 [7] 675403535 [8] 879590189 [9] 195083619 [10] 205522255 [11] 469455520 [12] 637537230 [13] 495117712 [14] 56731692 [15] 859112689 [16] 105348647 [17] 1068605190 [18] 418347532 [19] 590635819 [20] 660849263 [21] 335992297 [22] 1072032691 [23] 417498418 [24] 918044199 [25] 280234366 [26] 175543379 [27] 652609179 [28] 988006249 [29] 671696955 [30] 1029961643 [31] 239157232 [32] 228550216 [33] 958518321 [34] 614276633 [35] 868732628 [36] 904163935 [37] 774677222 [38] 353655184 [39] 238310886 [40] 388743057 ;
